letting n_nurses=25
letting n_days=7
letting n_shift_types=4
letting max_covers=12
letting t_covers=87
letting covers=[2,4,12,0,0,7,11,0,10,12,0,0,2,3,0,0,11,9,0,0,2,0,2,0,0,0,0,0]
letting prefes=[3,3,1,1,3,4,3,1,3,1,1,1,3,4,4,1,3,3,2,1,1,1,1,2,1,1,2,2,1,3,3,4,1,1,1,1,1,1,3,4,1,1,4,3,1,3,4,3,4,1,2,4,1,1,2,2,1,3,1,4,3,4,3,3,3,3,3,4,3,4,4,3,3,3,4,3,1,1,1,4,1,1,1,2,1,3,1,4,3,4,3,1,3,1,3,4,3,4,4,3,3,3,4,3,4,1,1,4,1,1,1,4,1,3,1,1,1,4,1,1,3,1,3,1,3,4,4,3,1,2,4,3,4,3,1,4,3,3,1,2,1,3,1,4,3,4,3,1,3,3,3,4,3,4,4,3,3,3,4,3,4,1,1,4,1,1,2,2,1,3,1,4,3,4,3,1,1,1,3,4,1,4,4,3,3,3,4,3,4,1,2,4,3,1,2,2,1,3,1,4,3,1,3,1,3,3,3,4,1,4,4,3,1,3,2,3,4,1,2,2,1,1,2,4,1,3,1,4,1,1,1,1,1,1,1,4,1,4,1,1,3,3,4,1,4,1,1,4,1,1,2,4,1,1,1,1,3,4,3,1,1,1,1,1,3,1,4,1,3,2,4,1,4,1,1,4,1,1,2,2,1,3,1,4,3,4,3,1,3,1,3,4,3,4,4,3,3,3,4,3,4,1,1,4,1,1,2,2,1,3,1,4,3,4,3,1,3,1,3,4,3,4,4,3,3,3,2,3,4,1,1,2,1,1,2,2,1,1,1,4,3,4,3,1,3,1,3,4,3,4,4,3,3,3,4,3,4,1,1,4,3,1,2,2,3,3,3,4,3,4,3,1,3,1,3,4,3,4,4,3,3,2,4,3,4,1,1,4,1,1,2,2,1,1,1,4,1,4,1,1,3,1,3,4,3,4,4,3,3,2,4,3,4,3,1,4,1,3,2,4,1,3,1,4,3,4,3,1,3,1,3,4,3,4,4,3,3,3,4,3,4,1,1,4,1,1,1,2,3,3,1,4,3,4,3,1,3,3,3,4,3,4,4,3,3,3,4,3,1,1,2,4,3,1,2,2,1,3,1,4,3,4,3,1,3,1,3,4,3,1,4,3,3,3,2,3,4,1,1,2,1,1,2,2,3,3,1,4,3,4,3,3,1,1,1,4,1,1,4,1,1,2,4,1,4,1,1,4,1,1,1,2,1,1,1,4,1,4,1,1,3,3,1,4,3,4,4,1,3,3,4,1,1,3,1,4,1,3,2,4,1,3,3,1,3,4,3,3,3,1,3,1,3,4,1,3,3,3,2,3,4,3,1,2,1,3,2,2,1,1,1,4,3,1,3,3,3,1,3,4,3,1,4,3,3,3,4,3,1,1,2,4,3,1,2,2,3,3,3,4,3,4,3,1,3,1,3,4,3,4,1,3,1,3,4,3,4,3,1,4,1,3,2,2,1,3,3,1,3,4,3,1,3,1,3,1,3,4,1,3,3,3,4,3,4,1,1,4,1,1,2,2,1,3,1,4,3,1,3,3,3,1,3,4,3,4,1,3,3,3,4,3,4,1,1,4,1,1,2,2]
letting ub =  294
